444471
51,37,100,93,69,66,72,15,89,18,80,8,104,102,24,71,81,74,35,47,5,64,76,20,21,85,55,49,12,41,28,29,105,54,27,7,96,97,45,39,59,53,32,99,2,1,31,38,84,10,44,75,22,63,73,101,88,3,60,30,67,98,25,33,92,77,95,36,83,52,23,4,91,16,68,87,61,94,103,70,13,56,90,0,42,43,86,26,57,58,65,9,82,79,62,11,14,46,78,48,34,6,50,17,40,19,51
